(declare-const BAV1 Bool)
(declare-const BAV2 Bool)
(declare-const BAV3 Bool)
(declare-const GEN2 Real)
(declare-const GEN1 Real)
(set-info :source "Handcrafted by C.M. Wintersteiger")
(declare-fun X () (_ FloatingPoint 11 53))
(declare-fun R () Real)
(assert (= R (fp.to_real X)))
(assert (<= R GEN1))
(assert (>= R GEN2))
(assert (= BAV1 (= R (fp.to_real X))))
(assert (= BAV2 (<= R GEN1)))
(assert (= BAV3 (>= R GEN2)))
(check-sat)
(get-model)
(check-sat-using smt)
(exit)